c Standarized MaxSat Instance
c{
c "sha1sum": "2a8fd4e253eaa870f4099cb817ea29968bb6fb0d",
c "nvars": 60,
c "ncls": 1200,
c "nhards": 0,
c "nhard_len_stats":
c    { "min": 0, "max": 0, "ave": 0.00,
c      "stddev": 0.00 },
c "nsofts": 1200,
c "nsoft_len_stats":
c    { "min": 2, "max": 2, "ave": 2.00,
c      "stddev": 0.00 },
c "nsoft_wts": 10,
c "soft_wt_stats":
c    { "min": 1, "max": 10, "ave": 5.69,
c      "stddev": 2.81 }
c}
c------------------------------------------------------------
c Generated after 1 tries
c Graph with 60 nodes and 600 edges, Max edges:1770
p wcnf 60 1200 6827
9 1 3 0
9 -1 -3 0
4 1 6 0
4 -1 -6 0
8 1 7 0
8 -1 -7 0
8 1 8 0
8 -1 -8 0
10 1 9 0
10 -1 -9 0
2 1 21 0
2 -1 -21 0
4 1 23 0
4 -1 -23 0
8 1 30 0
8 -1 -30 0
3 1 36 0
3 -1 -36 0
6 1 42 0
6 -1 -42 0
5 1 44 0
5 -1 -44 0
7 1 50 0
7 -1 -50 0
4 1 57 0
4 -1 -57 0
6 2 3 0
6 -2 -3 0
10 2 6 0
10 -2 -6 0
10 2 10 0
10 -2 -10 0
7 2 12 0
7 -2 -12 0
8 2 14 0
8 -2 -14 0
2 2 17 0
2 -2 -17 0
7 2 26 0
7 -2 -26 0
1 2 27 0
1 -2 -27 0
3 2 29 0
3 -2 -29 0
2 2 30 0
2 -2 -30 0
9 2 33 0
9 -2 -33 0
2 2 38 0
2 -2 -38 0
5 2 47 0
5 -2 -47 0
2 2 51 0
2 -2 -51 0
2 2 53 0
2 -2 -53 0
10 2 56 0
10 -2 -56 0
3 2 59 0
3 -2 -59 0
6 3 7 0
6 -3 -7 0
9 3 8 0
9 -3 -8 0
7 3 13 0
7 -3 -13 0
3 3 16 0
3 -3 -16 0
7 3 18 0
7 -3 -18 0
6 3 20 0
6 -3 -20 0
5 3 24 0
5 -3 -24 0
10 3 27 0
10 -3 -27 0
3 3 33 0
3 -3 -33 0
8 3 34 0
8 -3 -34 0
6 3 38 0
6 -3 -38 0
8 3 41 0
8 -3 -41 0
5 3 44 0
5 -3 -44 0
9 3 46 0
9 -3 -46 0
3 3 50 0
3 -3 -50 0
4 3 53 0
4 -3 -53 0
9 3 57 0
9 -3 -57 0
10 4 5 0
10 -4 -5 0
1 4 6 0
1 -4 -6 0
10 4 10 0
10 -4 -10 0
6 4 12 0
6 -4 -12 0
1 4 13 0
1 -4 -13 0
2 4 20 0
2 -4 -20 0
7 4 21 0
7 -4 -21 0
9 4 28 0
9 -4 -28 0
4 4 30 0
4 -4 -30 0
1 4 32 0
1 -4 -32 0
1 4 33 0
1 -4 -33 0
5 4 35 0
5 -4 -35 0
1 4 36 0
1 -4 -36 0
3 4 37 0
3 -4 -37 0
10 4 38 0
10 -4 -38 0
10 4 47 0
10 -4 -47 0
9 4 49 0
9 -4 -49 0
3 4 53 0
3 -4 -53 0
6 4 57 0
6 -4 -57 0
4 4 60 0
4 -4 -60 0
8 5 7 0
8 -5 -7 0
6 5 13 0
6 -5 -13 0
7 5 14 0
7 -5 -14 0
6 5 15 0
6 -5 -15 0
1 5 18 0
1 -5 -18 0
5 5 22 0
5 -5 -22 0
10 5 24 0
10 -5 -24 0
10 5 25 0
10 -5 -25 0
8 5 29 0
8 -5 -29 0
3 5 32 0
3 -5 -32 0
8 5 34 0
8 -5 -34 0
7 5 35 0
7 -5 -35 0
4 5 36 0
4 -5 -36 0
7 5 38 0
7 -5 -38 0
2 5 40 0
2 -5 -40 0
5 5 42 0
5 -5 -42 0
9 5 43 0
9 -5 -43 0
9 5 49 0
9 -5 -49 0
4 5 54 0
4 -5 -54 0
3 5 55 0
3 -5 -55 0
9 5 56 0
9 -5 -56 0
4 5 58 0
4 -5 -58 0
7 6 8 0
7 -6 -8 0
10 6 9 0
10 -6 -9 0
6 6 14 0
6 -6 -14 0
7 6 15 0
7 -6 -15 0
9 6 17 0
9 -6 -17 0
5 6 20 0
5 -6 -20 0
10 6 21 0
10 -6 -21 0
4 6 23 0
4 -6 -23 0
9 6 26 0
9 -6 -26 0
7 6 27 0
7 -6 -27 0
10 6 32 0
10 -6 -32 0
5 6 38 0
5 -6 -38 0
3 6 43 0
3 -6 -43 0
10 6 47 0
10 -6 -47 0
10 6 49 0
10 -6 -49 0
2 6 52 0
2 -6 -52 0
9 6 57 0
9 -6 -57 0
7 7 11 0
7 -7 -11 0
5 7 12 0
5 -7 -12 0
7 7 14 0
7 -7 -14 0
3 7 15 0
3 -7 -15 0
8 7 17 0
8 -7 -17 0
4 7 25 0
4 -7 -25 0
5 7 27 0
5 -7 -27 0
3 7 28 0
3 -7 -28 0
2 7 29 0
2 -7 -29 0
3 7 39 0
3 -7 -39 0
6 7 43 0
6 -7 -43 0
5 7 45 0
5 -7 -45 0
2 7 48 0
2 -7 -48 0
10 7 49 0
10 -7 -49 0
2 7 54 0
2 -7 -54 0
2 7 55 0
2 -7 -55 0
5 7 56 0
5 -7 -56 0
8 7 59 0
8 -7 -59 0
10 7 60 0
10 -7 -60 0
10 8 11 0
10 -8 -11 0
7 8 16 0
7 -8 -16 0
4 8 17 0
4 -8 -17 0
8 8 18 0
8 -8 -18 0
4 8 21 0
4 -8 -21 0
3 8 24 0
3 -8 -24 0
3 8 26 0
3 -8 -26 0
6 8 27 0
6 -8 -27 0
3 8 28 0
3 -8 -28 0
2 8 32 0
2 -8 -32 0
8 8 33 0
8 -8 -33 0
2 8 35 0
2 -8 -35 0
8 8 41 0
8 -8 -41 0
2 8 47 0
2 -8 -47 0
8 8 48 0
8 -8 -48 0
1 8 49 0
1 -8 -49 0
10 8 53 0
10 -8 -53 0
1 8 54 0
1 -8 -54 0
6 9 20 0
6 -9 -20 0
2 9 23 0
2 -9 -23 0
3 9 24 0
3 -9 -24 0
8 9 28 0
8 -9 -28 0
8 9 31 0
8 -9 -31 0
7 9 32 0
7 -9 -32 0
10 9 33 0
10 -9 -33 0
7 9 34 0
7 -9 -34 0
8 9 36 0
8 -9 -36 0
1 9 37 0
1 -9 -37 0
2 9 39 0
2 -9 -39 0
6 9 46 0
6 -9 -46 0
1 9 47 0
1 -9 -47 0
1 9 48 0
1 -9 -48 0
3 9 55 0
3 -9 -55 0
5 9 57 0
5 -9 -57 0
9 9 58 0
9 -9 -58 0
6 9 60 0
6 -9 -60 0
8 10 12 0
8 -10 -12 0
1 10 15 0
1 -10 -15 0
2 10 16 0
2 -10 -16 0
10 10 17 0
10 -10 -17 0
3 10 19 0
3 -10 -19 0
9 10 22 0
9 -10 -22 0
2 10 24 0
2 -10 -24 0
10 10 26 0
10 -10 -26 0
1 10 30 0
1 -10 -30 0
9 10 33 0
9 -10 -33 0
1 10 34 0
1 -10 -34 0
1 10 36 0
1 -10 -36 0
10 10 37 0
10 -10 -37 0
6 10 42 0
6 -10 -42 0
2 10 44 0
2 -10 -44 0
2 10 45 0
2 -10 -45 0
4 10 48 0
4 -10 -48 0
10 10 53 0
10 -10 -53 0
9 10 54 0
9 -10 -54 0
4 10 58 0
4 -10 -58 0
6 11 15 0
6 -11 -15 0
6 11 16 0
6 -11 -16 0
5 11 18 0
5 -11 -18 0
7 11 21 0
7 -11 -21 0
1 11 23 0
1 -11 -23 0
6 11 30 0
6 -11 -30 0
8 11 32 0
8 -11 -32 0
4 11 34 0
4 -11 -34 0
10 11 37 0
10 -11 -37 0
6 11 40 0
6 -11 -40 0
9 11 41 0
9 -11 -41 0
8 11 42 0
8 -11 -42 0
7 11 49 0
7 -11 -49 0
1 11 56 0
1 -11 -56 0
8 11 58 0
8 -11 -58 0
9 12 16 0
9 -12 -16 0
10 12 17 0
10 -12 -17 0
9 12 19 0
9 -12 -19 0
9 12 23 0
9 -12 -23 0
10 12 25 0
10 -12 -25 0
8 12 26 0
8 -12 -26 0
10 12 39 0
10 -12 -39 0
10 12 40 0
10 -12 -40 0
7 12 42 0
7 -12 -42 0
5 12 47 0
5 -12 -47 0
2 12 48 0
2 -12 -48 0
9 12 49 0
9 -12 -49 0
9 12 52 0
9 -12 -52 0
1 12 53 0
1 -12 -53 0
7 12 58 0
7 -12 -58 0
3 12 60 0
3 -12 -60 0
7 13 20 0
7 -13 -20 0
3 13 21 0
3 -13 -21 0
8 13 22 0
8 -13 -22 0
4 13 28 0
4 -13 -28 0
4 13 33 0
4 -13 -33 0
3 13 38 0
3 -13 -38 0
1 13 39 0
1 -13 -39 0
7 13 46 0
7 -13 -46 0
3 13 48 0
3 -13 -48 0
7 13 60 0
7 -13 -60 0
6 14 16 0
6 -14 -16 0
10 14 17 0
10 -14 -17 0
3 14 19 0
3 -14 -19 0
6 14 20 0
6 -14 -20 0
8 14 23 0
8 -14 -23 0
2 14 25 0
2 -14 -25 0
5 14 27 0
5 -14 -27 0
6 14 30 0
6 -14 -30 0
10 14 35 0
10 -14 -35 0
5 14 38 0
5 -14 -38 0
4 14 40 0
4 -14 -40 0
9 14 44 0
9 -14 -44 0
5 14 45 0
5 -14 -45 0
1 14 46 0
1 -14 -46 0
4 14 49 0
4 -14 -49 0
6 14 50 0
6 -14 -50 0
9 14 53 0
9 -14 -53 0
3 14 56 0
3 -14 -56 0
7 14 57 0
7 -14 -57 0
5 14 59 0
5 -14 -59 0
5 14 60 0
5 -14 -60 0
4 15 17 0
4 -15 -17 0
8 15 19 0
8 -15 -19 0
2 15 22 0
2 -15 -22 0
7 15 23 0
7 -15 -23 0
1 15 24 0
1 -15 -24 0
5 15 29 0
5 -15 -29 0
7 15 33 0
7 -15 -33 0
7 15 34 0
7 -15 -34 0
7 15 48 0
7 -15 -48 0
4 15 55 0
4 -15 -55 0
2 15 59 0
2 -15 -59 0
7 16 20 0
7 -16 -20 0
7 16 23 0
7 -16 -23 0
8 16 27 0
8 -16 -27 0
4 16 28 0
4 -16 -28 0
8 16 30 0
8 -16 -30 0
3 16 34 0
3 -16 -34 0
10 16 38 0
10 -16 -38 0
7 16 42 0
7 -16 -42 0
7 16 43 0
7 -16 -43 0
3 16 44 0
3 -16 -44 0
6 16 46 0
6 -16 -46 0
1 16 49 0
1 -16 -49 0
3 16 53 0
3 -16 -53 0
9 16 56 0
9 -16 -56 0
7 16 58 0
7 -16 -58 0
1 17 22 0
1 -17 -22 0
2 17 23 0
2 -17 -23 0
4 17 27 0
4 -17 -27 0
6 17 30 0
6 -17 -30 0
6 17 31 0
6 -17 -31 0
7 17 34 0
7 -17 -34 0
3 17 37 0
3 -17 -37 0
8 17 38 0
8 -17 -38 0
3 17 42 0
3 -17 -42 0
4 17 46 0
4 -17 -46 0
2 17 47 0
2 -17 -47 0
10 17 49 0
10 -17 -49 0
1 17 51 0
1 -17 -51 0
9 17 57 0
9 -17 -57 0
4 17 60 0
4 -17 -60 0
2 18 23 0
2 -18 -23 0
5 18 24 0
5 -18 -24 0
10 18 27 0
10 -18 -27 0
10 18 29 0
10 -18 -29 0
8 18 31 0
8 -18 -31 0
7 18 36 0
7 -18 -36 0
2 18 37 0
2 -18 -37 0
7 18 40 0
7 -18 -40 0
4 18 44 0
4 -18 -44 0
8 18 45 0
8 -18 -45 0
10 18 47 0
10 -18 -47 0
10 18 48 0
10 -18 -48 0
9 18 49 0
9 -18 -49 0
3 18 50 0
3 -18 -50 0
8 18 51 0
8 -18 -51 0
6 18 53 0
6 -18 -53 0
3 18 54 0
3 -18 -54 0
10 18 55 0
10 -18 -55 0
10 18 56 0
10 -18 -56 0
9 18 58 0
9 -18 -58 0
5 18 60 0
5 -18 -60 0
6 19 20 0
6 -19 -20 0
2 19 22 0
2 -19 -22 0
3 19 23 0
3 -19 -23 0
9 19 24 0
9 -19 -24 0
5 19 26 0
5 -19 -26 0
5 19 28 0
5 -19 -28 0
9 19 31 0
9 -19 -31 0
5 19 34 0
5 -19 -34 0
3 19 43 0
3 -19 -43 0
2 19 45 0
2 -19 -45 0
7 19 54 0
7 -19 -54 0
8 19 55 0
8 -19 -55 0
2 19 58 0
2 -19 -58 0
7 19 60 0
7 -19 -60 0
5 20 21 0
5 -20 -21 0
9 20 27 0
9 -20 -27 0
8 20 28 0
8 -20 -28 0
2 20 34 0
2 -20 -34 0
3 20 39 0
3 -20 -39 0
5 20 40 0
5 -20 -40 0
2 20 46 0
2 -20 -46 0
2 20 50 0
2 -20 -50 0
4 20 51 0
4 -20 -51 0
4 20 52 0
4 -20 -52 0
10 20 54 0
10 -20 -54 0
10 20 55 0
10 -20 -55 0
7 20 57 0
7 -20 -57 0
9 20 59 0
9 -20 -59 0
9 21 22 0
9 -21 -22 0
5 21 23 0
5 -21 -23 0
4 21 27 0
4 -21 -27 0
4 21 29 0
4 -21 -29 0
7 21 33 0
7 -21 -33 0
7 21 34 0
7 -21 -34 0
3 21 40 0
3 -21 -40 0
2 21 43 0
2 -21 -43 0
1 21 45 0
1 -21 -45 0
2 21 46 0
2 -21 -46 0
7 21 49 0
7 -21 -49 0
4 21 51 0
4 -21 -51 0
3 21 56 0
3 -21 -56 0
4 22 23 0
4 -22 -23 0
1 22 24 0
1 -22 -24 0
5 22 27 0
5 -22 -27 0
10 22 29 0
10 -22 -29 0
6 22 33 0
6 -22 -33 0
3 22 34 0
3 -22 -34 0
7 22 35 0
7 -22 -35 0
8 22 36 0
8 -22 -36 0
5 22 38 0
5 -22 -38 0
2 22 43 0
2 -22 -43 0
9 22 46 0
9 -22 -46 0
7 22 51 0
7 -22 -51 0
6 22 52 0
6 -22 -52 0
3 22 54 0
3 -22 -54 0
6 22 56 0
6 -22 -56 0
5 22 58 0
5 -22 -58 0
9 22 60 0
9 -22 -60 0
4 23 25 0
4 -23 -25 0
3 23 29 0
3 -23 -29 0
4 23 34 0
4 -23 -34 0
8 23 36 0
8 -23 -36 0
7 23 37 0
7 -23 -37 0
10 23 39 0
10 -23 -39 0
4 23 43 0
4 -23 -43 0
9 23 46 0
9 -23 -46 0
2 23 47 0
2 -23 -47 0
5 23 50 0
5 -23 -50 0
1 23 51 0
1 -23 -51 0
8 23 55 0
8 -23 -55 0
8 23 56 0
8 -23 -56 0
3 23 58 0
3 -23 -58 0
2 23 59 0
2 -23 -59 0
9 24 27 0
9 -24 -27 0
8 24 31 0
8 -24 -31 0
1 24 35 0
1 -24 -35 0
5 24 36 0
5 -24 -36 0
10 24 38 0
10 -24 -38 0
8 24 40 0
8 -24 -40 0
3 24 41 0
3 -24 -41 0
5 24 43 0
5 -24 -43 0
9 24 45 0
9 -24 -45 0
1 24 46 0
1 -24 -46 0
1 24 47 0
1 -24 -47 0
4 24 48 0
4 -24 -48 0
4 24 52 0
4 -24 -52 0
7 24 54 0
7 -24 -54 0
9 24 56 0
9 -24 -56 0
2 24 59 0
2 -24 -59 0
1 25 29 0
1 -25 -29 0
1 25 30 0
1 -25 -30 0
5 25 32 0
5 -25 -32 0
8 25 40 0
8 -25 -40 0
7 25 44 0
7 -25 -44 0
5 25 48 0
5 -25 -48 0
2 25 52 0
2 -25 -52 0
6 25 53 0
6 -25 -53 0
6 25 54 0
6 -25 -54 0
6 25 59 0
6 -25 -59 0
6 26 27 0
6 -26 -27 0
4 26 29 0
4 -26 -29 0
4 26 32 0
4 -26 -32 0
9 26 33 0
9 -26 -33 0
5 26 41 0
5 -26 -41 0
2 26 47 0
2 -26 -47 0
7 26 49 0
7 -26 -49 0
6 26 50 0
6 -26 -50 0
7 26 55 0
7 -26 -55 0
6 26 56 0
6 -26 -56 0
3 26 57 0
3 -26 -57 0
9 27 30 0
9 -27 -30 0
1 27 34 0
1 -27 -34 0
1 27 41 0
1 -27 -41 0
10 27 49 0
10 -27 -49 0
2 27 50 0
2 -27 -50 0
5 27 57 0
5 -27 -57 0
3 28 30 0
3 -28 -30 0
9 28 35 0
9 -28 -35 0
3 28 37 0
3 -28 -37 0
4 28 39 0
4 -28 -39 0
9 28 43 0
9 -28 -43 0
4 28 44 0
4 -28 -44 0
9 28 49 0
9 -28 -49 0
7 28 51 0
7 -28 -51 0
1 28 55 0
1 -28 -55 0
3 28 57 0
3 -28 -57 0
8 29 32 0
8 -29 -32 0
7 29 36 0
7 -29 -36 0
9 29 38 0
9 -29 -38 0
4 29 45 0
4 -29 -45 0
3 29 50 0
3 -29 -50 0
2 29 51 0
2 -29 -51 0
7 29 52 0
7 -29 -52 0
2 29 53 0
2 -29 -53 0
7 29 58 0
7 -29 -58 0
8 29 60 0
8 -29 -60 0
8 30 31 0
8 -30 -31 0
3 30 34 0
3 -30 -34 0
5 30 37 0
5 -30 -37 0
4 30 44 0
4 -30 -44 0
5 30 45 0
5 -30 -45 0
3 30 46 0
3 -30 -46 0
4 30 53 0
4 -30 -53 0
6 30 55 0
6 -30 -55 0
2 30 57 0
2 -30 -57 0
6 31 32 0
6 -31 -32 0
1 31 39 0
1 -31 -39 0
4 31 43 0
4 -31 -43 0
4 31 48 0
4 -31 -48 0
4 31 51 0
4 -31 -51 0
8 31 54 0
8 -31 -54 0
3 31 55 0
3 -31 -55 0
7 31 57 0
7 -31 -57 0
6 31 59 0
6 -31 -59 0
10 31 60 0
10 -31 -60 0
7 32 35 0
7 -32 -35 0
9 32 38 0
9 -32 -38 0
7 32 41 0
7 -32 -41 0
4 32 42 0
4 -32 -42 0
7 32 44 0
7 -32 -44 0
1 32 46 0
1 -32 -46 0
6 32 49 0
6 -32 -49 0
9 32 50 0
9 -32 -50 0
7 32 53 0
7 -32 -53 0
7 32 54 0
7 -32 -54 0
6 32 57 0
6 -32 -57 0
5 32 59 0
5 -32 -59 0
4 32 60 0
4 -32 -60 0
8 33 34 0
8 -33 -34 0
9 33 38 0
9 -33 -38 0
7 33 40 0
7 -33 -40 0
2 33 46 0
2 -33 -46 0
1 33 52 0
1 -33 -52 0
1 33 54 0
1 -33 -54 0
7 33 55 0
7 -33 -55 0
2 33 58 0
2 -33 -58 0
7 34 36 0
7 -34 -36 0
8 34 38 0
8 -34 -38 0
6 34 43 0
6 -34 -43 0
1 34 45 0
1 -34 -45 0
1 34 50 0
1 -34 -50 0
4 34 52 0
4 -34 -52 0
3 34 55 0
3 -34 -55 0
7 34 56 0
7 -34 -56 0
9 34 58 0
9 -34 -58 0
2 34 59 0
2 -34 -59 0
4 35 41 0
4 -35 -41 0
7 35 43 0
7 -35 -43 0
9 35 44 0
9 -35 -44 0
7 35 45 0
7 -35 -45 0
4 35 46 0
4 -35 -46 0
9 35 50 0
9 -35 -50 0
2 35 56 0
2 -35 -56 0
2 35 57 0
2 -35 -57 0
6 36 38 0
6 -36 -38 0
9 36 41 0
9 -36 -41 0
7 36 50 0
7 -36 -50 0
10 36 51 0
10 -36 -51 0
2 36 54 0
2 -36 -54 0
4 36 58 0
4 -36 -58 0
8 37 41 0
8 -37 -41 0
9 37 46 0
9 -37 -46 0
6 37 47 0
6 -37 -47 0
8 37 54 0
8 -37 -54 0
10 37 59 0
10 -37 -59 0
3 38 41 0
3 -38 -41 0
10 38 44 0
10 -38 -44 0
6 38 49 0
6 -38 -49 0
10 38 51 0
10 -38 -51 0
5 38 55 0
5 -38 -55 0
6 38 59 0
6 -38 -59 0
10 38 60 0
10 -38 -60 0
8 39 40 0
8 -39 -40 0
9 39 41 0
9 -39 -41 0
6 39 42 0
6 -39 -42 0
7 39 43 0
7 -39 -43 0
10 39 45 0
10 -39 -45 0
10 39 48 0
10 -39 -48 0
4 39 51 0
4 -39 -51 0
9 39 54 0
9 -39 -54 0
6 39 55 0
6 -39 -55 0
7 40 49 0
7 -40 -49 0
8 40 53 0
8 -40 -53 0
8 40 55 0
8 -40 -55 0
8 40 59 0
8 -40 -59 0
3 41 42 0
3 -41 -42 0
7 41 43 0
7 -41 -43 0
5 41 45 0
5 -41 -45 0
2 41 47 0
2 -41 -47 0
8 41 50 0
8 -41 -50 0
9 41 52 0
9 -41 -52 0
9 41 54 0
9 -41 -54 0
7 41 57 0
7 -41 -57 0
5 41 58 0
5 -41 -58 0
7 41 60 0
7 -41 -60 0
6 42 45 0
6 -42 -45 0
7 42 49 0
7 -42 -49 0
6 42 50 0
6 -42 -50 0
2 42 51 0
2 -42 -51 0
6 42 52 0
6 -42 -52 0
1 42 53 0
1 -42 -53 0
8 42 55 0
8 -42 -55 0
6 42 59 0
6 -42 -59 0
9 43 46 0
9 -43 -46 0
6 43 47 0
6 -43 -47 0
2 43 57 0
2 -43 -57 0
5 43 59 0
5 -43 -59 0
6 43 60 0
6 -43 -60 0
1 44 45 0
1 -44 -45 0
9 44 47 0
9 -44 -47 0
4 44 52 0
4 -44 -52 0
7 44 55 0
7 -44 -55 0
5 44 56 0
5 -44 -56 0
2 44 58 0
2 -44 -58 0
5 45 47 0
5 -45 -47 0
3 45 49 0
3 -45 -49 0
5 45 54 0
5 -45 -54 0
1 45 55 0
1 -45 -55 0
8 45 58 0
8 -45 -58 0
6 45 59 0
6 -45 -59 0
9 45 60 0
9 -45 -60 0
6 46 49 0
6 -46 -49 0
5 46 51 0
5 -46 -51 0
5 46 54 0
5 -46 -54 0
10 46 56 0
10 -46 -56 0
1 46 57 0
1 -46 -57 0
1 47 51 0
1 -47 -51 0
7 47 54 0
7 -47 -54 0
6 47 57 0
6 -47 -57 0
3 48 50 0
3 -48 -50 0
3 48 54 0
3 -48 -54 0
7 48 60 0
7 -48 -60 0
10 49 50 0
10 -49 -50 0
8 49 54 0
8 -49 -54 0
5 49 55 0
5 -49 -55 0
5 49 60 0
5 -49 -60 0
9 50 52 0
9 -50 -52 0
10 50 53 0
10 -50 -53 0
10 50 57 0
10 -50 -57 0
9 50 58 0
9 -50 -58 0
8 50 59 0
8 -50 -59 0
4 50 60 0
4 -50 -60 0
6 51 54 0
6 -51 -54 0
3 51 56 0
3 -51 -56 0
5 51 57 0
5 -51 -57 0
10 52 54 0
10 -52 -54 0
5 52 56 0
5 -52 -56 0
9 52 59 0
9 -52 -59 0
10 53 60 0
10 -53 -60 0
2 54 58 0
2 -54 -58 0
5 55 59 0
5 -55 -59 0
8 55 60 0
8 -55 -60 0
8 56 58 0
8 -56 -58 0
10 57 59 0
10 -57 -59 0
3 57 60 0
3 -57 -60 0
